/*********************************************
 * OPL 12.6.0.0 Data
 * Author: root
 * Creation Date: 20/06/2016 at 10:05:34
 *********************************************/

nTrucks=1;
nPackages=2;
xTruck=5;
yTruck=5;
wTruck=5;
xDimp=[2,3];
yDimp=[2,3];
wp=[3,2];
incomp=[
 [0 0]
 [0 0]];